0000000000000000
0000000000000000
0000000000000000
0001111110100000
0001010101100000
0000000001100000
0000000001110000
0000000000100000
0000000001100000
0000000001100000
0000000001110000
0000000011100000
0001101111100000
0000000000000000
0000000000000000
0000000000000000
